p cnf 7230 16
-2598 -3686 -3689 0
-3687 3689 0
-3246 -3260 -3692 0
3246 -3693 0
3692 3693 0
3690 3691 0
3244 -3691 0
-3244 -3690 0
3686 3687 0
3260 -3693 0
2598 -3687 0
3688 3689 0
3242 -3689 0
-3242 -3688 0
3248 -3695 0
3684 3685 0
